* #variable= 960 #constraint= 915 
+1 x25 -1 x1 >= 0 ;
+1 x25 -1 x13 >= 0 ;
-1 x25 +1 x1 +1 x13 >= 0 ;
+1 x13 = 0 ;
+1 x26 -1 x2 >= 0 ;
+1 x26 -1 x14 >= 0 ;
-1 x26 +1 x2 +1 x14 >= 0 ;
+1 x14 = 1 ;
+1 x27 -1 x3 >= 0 ;
+1 x27 -1 x15 >= 0 ;
-1 x27 +1 x3 +1 x15 >= 0 ;
+1 x15 = 0 ;
+1 x28 -1 x4 >= 0 ;
+1 x28 -1 x16 >= 0 ;
-1 x28 +1 x4 +1 x16 >= 0 ;
+1 x16 = 1 ;
+1 x29 -1 x5 >= 0 ;
+1 x29 -1 x17 >= 0 ;
-1 x29 +1 x5 +1 x17 >= 0 ;
+1 x17 = 0 ;
+1 x30 -1 x6 >= 0 ;
+1 x30 -1 x18 >= 0 ;
-1 x30 +1 x6 +1 x18 >= 0 ;
+1 x18 = 1 ;
+1 x31 -1 x7 >= 0 ;
+1 x31 -1 x19 >= 0 ;
-1 x31 +1 x7 +1 x19 >= 0 ;
+1 x19 = 0 ;
+1 x32 -1 x8 >= 0 ;
+1 x32 -1 x20 >= 0 ;
-1 x32 +1 x8 +1 x20 >= 0 ;
+1 x20 = 1 ;
+1 x33 -1 x9 >= 0 ;
+1 x33 -1 x21 >= 0 ;
-1 x33 +1 x9 +1 x21 >= 0 ;
+1 x21 = 0 ;
+1 x34 -1 x10 >= 0 ;
+1 x34 -1 x22 >= 0 ;
-1 x34 +1 x10 +1 x22 >= 0 ;
+1 x22 = 1 ;
+1 x35 -1 x11 >= 0 ;
+1 x35 -1 x23 >= 0 ;
-1 x35 +1 x11 +1 x23 >= 0 ;
+1 x23 = 0 ;
+1 x36 -1 x12 >= 0 ;
+1 x36 -1 x24 >= 0 ;
-1 x36 +1 x12 +1 x24 >= 0 ;
+1 x24 = 1 ;
-1 x49 +1 x25 >= 0 ;
-1 x49 +1 x37 >= 0 ;
+1 x49 -1 x25 -1 x37 >= -1 ;
+1 x49 +2 x61 +4 x73 +8 x85 +16 x97 +32 x109 +64 x121 +128 x133 +256 x145 +512 x157 +1024 x169 +2048 x181 +2 x50 +4 x62 +8 x74 +16 x86 +32 x98 +64 x110 +128 x122 +256 x134 +512 x146 +1024 x158 +2048 x170 +4096 x182 +4 x51 +8 x63 +16 x75 +32 x87 +64 x99 +128 x111 +256 x123 +512 x135 +1024 x147 +2048 x159 +4096 x171 +8192 x183 +8 x52 +16 x64 +32 x76 +64 x88 +128 x100 +256 x112 +512 x124 +1024 x136 +2048 x148 +4096 x160 +8192 x172 +16384 x184 +16 x53 +32 x65 +64 x77 +128 x89 +256 x101 +512 x113 +1024 x125 +2048 x137 +4096 x149 +8192 x161 +16384 x173 +32768 x185 +32 x54 +64 x66 +128 x78 +256 x90 +512 x102 +1024 x114 +2048 x126 +4096 x138 +8192 x150 +16384 x162 +32768 x174 +65536 x186 +64 x55 +128 x67 +256 x79 +512 x91 +1024 x103 +2048 x115 +4096 x127 +8192 x139 +16384 x151 +32768 x163 +65536 x175 +131072 x187 +128 x56 +256 x68 +512 x80 +1024 x92 +2048 x104 +4096 x116 +8192 x128 +16384 x140 +32768 x152 +65536 x164 +131072 x176 +262144 x188 +256 x57 +512 x69 +1024 x81 +2048 x93 +4096 x105 +8192 x117 +16384 x129 +32768 x141 +65536 x153 +131072 x165 +262144 x177 +524288 x189 +512 x58 +1024 x70 +2048 x82 +4096 x94 +8192 x106 +16384 x118 +32768 x130 +65536 x142 +131072 x154 +262144 x166 +524288 x178 +1048576 x190 +1024 x59 +2048 x71 +4096 x83 +8192 x95 +16384 x107 +32768 x119 +65536 x131 +131072 x143 +262144 x155 +524288 x167 +1048576 x179 +2097152 x191 +2048 x60 +4096 x72 +8192 x84 +16384 x96 +32768 x108 +65536 x120 +131072 x132 +262144 x144 +524288 x156 +1048576 x168 +2097152 x180 +4194304 x192 -1 x913 -2 x914 -4 x915 -8 x916 -16 x917 -32 x918 -64 x919 -128 x920 -256 x921 -512 x922 -1024 x923 -2048 x924 -4096 x925 -8192 x926 -16384 x927 -32768 x928 -65536 x929 -131072 x930 -262144 x931 -524288 x932 -1048576 x933 -2097152 x934 -4194304 x935 -8388608 x936 = 0; 
-1 x481 +1 x13 >= 0 ;
-1 x481 +1 x37 >= 0 ;
+1 x481 -1 x13 -1 x37 >= -1 ;
+1 x481 +2 x493 +4 x505 +8 x517 +16 x529 +32 x541 +64 x553 +128 x565 +256 x577 +512 x589 +1024 x601 +2048 x613 +2 x482 +4 x494 +8 x506 +16 x518 +32 x530 +64 x542 +128 x554 +256 x566 +512 x578 +1024 x590 +2048 x602 +4096 x614 +4 x483 +8 x495 +16 x507 +32 x519 +64 x531 +128 x543 +256 x555 +512 x567 +1024 x579 +2048 x591 +4096 x603 +8192 x615 +8 x484 +16 x496 +32 x508 +64 x520 +128 x532 +256 x544 +512 x556 +1024 x568 +2048 x580 +4096 x592 +8192 x604 +16384 x616 +16 x485 +32 x497 +64 x509 +128 x521 +256 x533 +512 x545 +1024 x557 +2048 x569 +4096 x581 +8192 x593 +16384 x605 +32768 x617 +32 x486 +64 x498 +128 x510 +256 x522 +512 x534 +1024 x546 +2048 x558 +4096 x570 +8192 x582 +16384 x594 +32768 x606 +65536 x618 +64 x487 +128 x499 +256 x511 +512 x523 +1024 x535 +2048 x547 +4096 x559 +8192 x571 +16384 x583 +32768 x595 +65536 x607 +131072 x619 +128 x488 +256 x500 +512 x512 +1024 x524 +2048 x536 +4096 x548 +8192 x560 +16384 x572 +32768 x584 +65536 x596 +131072 x608 +262144 x620 +256 x489 +512 x501 +1024 x513 +2048 x525 +4096 x537 +8192 x549 +16384 x561 +32768 x573 +65536 x585 +131072 x597 +262144 x609 +524288 x621 +512 x490 +1024 x502 +2048 x514 +4096 x526 +8192 x538 +16384 x550 +32768 x562 +65536 x574 +131072 x586 +262144 x598 +524288 x610 +1048576 x622 +1024 x491 +2048 x503 +4096 x515 +8192 x527 +16384 x539 +32768 x551 +65536 x563 +131072 x575 +262144 x587 +524288 x599 +1048576 x611 +2097152 x623 +2048 x492 +4096 x504 +8192 x516 +16384 x528 +32768 x540 +65536 x552 +131072 x564 +262144 x576 +524288 x588 +1048576 x600 +2097152 x612 +4194304 x624 -1 x937 -2 x938 -4 x939 -8 x940 -16 x941 -32 x942 -64 x943 -128 x944 -256 x945 -512 x946 -1024 x947 -2048 x948 -4096 x949 -8192 x950 -16384 x951 -32768 x952 -65536 x953 -131072 x954 -262144 x955 -524288 x956 -1048576 x957 -2097152 x958 -4194304 x959 -8388608 x960 = 0; 
+1 x937 -1 x913 +2 x938 -2 x914 +4 x939 -4 x915 +8 x940 -8 x916 +16 x941 -16 x917 +32 x942 -32 x918 +64 x943 -64 x919 +128 x944 -128 x920 +256 x945 -256 x921 +512 x946 -512 x922 +1024 x947 -1024 x923 +2048 x948 -2048 x924 +4096 x949 -4096 x925 +8192 x950 -8192 x926 +16384 x951 -16384 x927 +32768 x952 -32768 x928 +65536 x953 -65536 x929 +131072 x954 -131072 x930 +262144 x955 -262144 x931 +524288 x956 -524288 x932 +1048576 x957 -1048576 x933 +2097152 x958 -2097152 x934 +4194304 x959 -4194304 x935 +8388608 x960 -8388608 x936 >= 1 ;
-1 x61 +1 x26 >= 0 ;
-1 x61 +1 x37 >= 0 ;
+1 x61 -1 x26 -1 x37 >= -1 ;
-1 x50 +1 x25 >= 0 ;
-1 x50 +1 x38 >= 0 ;
+1 x50 -1 x25 -1 x38 >= -1 ;
-1 x493 +1 x14 >= 0 ;
-1 x493 +1 x37 >= 0 ;
+1 x493 -1 x14 -1 x37 >= -1 ;
-1 x482 +1 x13 >= 0 ;
-1 x482 +1 x38 >= 0 ;
+1 x482 -1 x13 -1 x38 >= -1 ;
-1 x73 +1 x27 >= 0 ;
-1 x73 +1 x37 >= 0 ;
+1 x73 -1 x27 -1 x37 >= -1 ;
-1 x62 +1 x26 >= 0 ;
-1 x62 +1 x38 >= 0 ;
+1 x62 -1 x26 -1 x38 >= -1 ;
-1 x51 +1 x25 >= 0 ;
-1 x51 +1 x39 >= 0 ;
+1 x51 -1 x25 -1 x39 >= -1 ;
-1 x505 +1 x15 >= 0 ;
-1 x505 +1 x37 >= 0 ;
+1 x505 -1 x15 -1 x37 >= -1 ;
-1 x494 +1 x14 >= 0 ;
-1 x494 +1 x38 >= 0 ;
+1 x494 -1 x14 -1 x38 >= -1 ;
-1 x483 +1 x13 >= 0 ;
-1 x483 +1 x39 >= 0 ;
+1 x483 -1 x13 -1 x39 >= -1 ;
-1 x85 +1 x28 >= 0 ;
-1 x85 +1 x37 >= 0 ;
+1 x85 -1 x28 -1 x37 >= -1 ;
-1 x74 +1 x27 >= 0 ;
-1 x74 +1 x38 >= 0 ;
+1 x74 -1 x27 -1 x38 >= -1 ;
-1 x63 +1 x26 >= 0 ;
-1 x63 +1 x39 >= 0 ;
+1 x63 -1 x26 -1 x39 >= -1 ;
-1 x52 +1 x25 >= 0 ;
-1 x52 +1 x40 >= 0 ;
+1 x52 -1 x25 -1 x40 >= -1 ;
-1 x517 +1 x16 >= 0 ;
-1 x517 +1 x37 >= 0 ;
+1 x517 -1 x16 -1 x37 >= -1 ;
-1 x506 +1 x15 >= 0 ;
-1 x506 +1 x38 >= 0 ;
+1 x506 -1 x15 -1 x38 >= -1 ;
-1 x495 +1 x14 >= 0 ;
-1 x495 +1 x39 >= 0 ;
+1 x495 -1 x14 -1 x39 >= -1 ;
-1 x484 +1 x13 >= 0 ;
-1 x484 +1 x40 >= 0 ;
+1 x484 -1 x13 -1 x40 >= -1 ;
-1 x97 +1 x29 >= 0 ;
-1 x97 +1 x37 >= 0 ;
+1 x97 -1 x29 -1 x37 >= -1 ;
-1 x86 +1 x28 >= 0 ;
-1 x86 +1 x38 >= 0 ;
+1 x86 -1 x28 -1 x38 >= -1 ;
-1 x75 +1 x27 >= 0 ;
-1 x75 +1 x39 >= 0 ;
+1 x75 -1 x27 -1 x39 >= -1 ;
-1 x64 +1 x26 >= 0 ;
-1 x64 +1 x40 >= 0 ;
+1 x64 -1 x26 -1 x40 >= -1 ;
-1 x53 +1 x25 >= 0 ;
-1 x53 +1 x41 >= 0 ;
+1 x53 -1 x25 -1 x41 >= -1 ;
-1 x529 +1 x17 >= 0 ;
-1 x529 +1 x37 >= 0 ;
+1 x529 -1 x17 -1 x37 >= -1 ;
-1 x518 +1 x16 >= 0 ;
-1 x518 +1 x38 >= 0 ;
+1 x518 -1 x16 -1 x38 >= -1 ;
-1 x507 +1 x15 >= 0 ;
-1 x507 +1 x39 >= 0 ;
+1 x507 -1 x15 -1 x39 >= -1 ;
-1 x496 +1 x14 >= 0 ;
-1 x496 +1 x40 >= 0 ;
+1 x496 -1 x14 -1 x40 >= -1 ;
-1 x485 +1 x13 >= 0 ;
-1 x485 +1 x41 >= 0 ;
+1 x485 -1 x13 -1 x41 >= -1 ;
-1 x109 +1 x30 >= 0 ;
-1 x109 +1 x37 >= 0 ;
+1 x109 -1 x30 -1 x37 >= -1 ;
-1 x98 +1 x29 >= 0 ;
-1 x98 +1 x38 >= 0 ;
+1 x98 -1 x29 -1 x38 >= -1 ;
-1 x87 +1 x28 >= 0 ;
-1 x87 +1 x39 >= 0 ;
+1 x87 -1 x28 -1 x39 >= -1 ;
-1 x76 +1 x27 >= 0 ;
-1 x76 +1 x40 >= 0 ;
+1 x76 -1 x27 -1 x40 >= -1 ;
-1 x65 +1 x26 >= 0 ;
-1 x65 +1 x41 >= 0 ;
+1 x65 -1 x26 -1 x41 >= -1 ;
-1 x54 +1 x25 >= 0 ;
-1 x54 +1 x42 >= 0 ;
+1 x54 -1 x25 -1 x42 >= -1 ;
-1 x541 +1 x18 >= 0 ;
-1 x541 +1 x37 >= 0 ;
+1 x541 -1 x18 -1 x37 >= -1 ;
-1 x530 +1 x17 >= 0 ;
-1 x530 +1 x38 >= 0 ;
+1 x530 -1 x17 -1 x38 >= -1 ;
-1 x519 +1 x16 >= 0 ;
-1 x519 +1 x39 >= 0 ;
+1 x519 -1 x16 -1 x39 >= -1 ;
-1 x508 +1 x15 >= 0 ;
-1 x508 +1 x40 >= 0 ;
+1 x508 -1 x15 -1 x40 >= -1 ;
-1 x497 +1 x14 >= 0 ;
-1 x497 +1 x41 >= 0 ;
+1 x497 -1 x14 -1 x41 >= -1 ;
-1 x486 +1 x13 >= 0 ;
-1 x486 +1 x42 >= 0 ;
+1 x486 -1 x13 -1 x42 >= -1 ;
-1 x121 +1 x31 >= 0 ;
-1 x121 +1 x37 >= 0 ;
+1 x121 -1 x31 -1 x37 >= -1 ;
-1 x110 +1 x30 >= 0 ;
-1 x110 +1 x38 >= 0 ;
+1 x110 -1 x30 -1 x38 >= -1 ;
-1 x99 +1 x29 >= 0 ;
-1 x99 +1 x39 >= 0 ;
+1 x99 -1 x29 -1 x39 >= -1 ;
-1 x88 +1 x28 >= 0 ;
-1 x88 +1 x40 >= 0 ;
+1 x88 -1 x28 -1 x40 >= -1 ;
-1 x77 +1 x27 >= 0 ;
-1 x77 +1 x41 >= 0 ;
+1 x77 -1 x27 -1 x41 >= -1 ;
-1 x66 +1 x26 >= 0 ;
-1 x66 +1 x42 >= 0 ;
+1 x66 -1 x26 -1 x42 >= -1 ;
-1 x55 +1 x25 >= 0 ;
-1 x55 +1 x43 >= 0 ;
+1 x55 -1 x25 -1 x43 >= -1 ;
-1 x553 +1 x19 >= 0 ;
-1 x553 +1 x37 >= 0 ;
+1 x553 -1 x19 -1 x37 >= -1 ;
-1 x542 +1 x18 >= 0 ;
-1 x542 +1 x38 >= 0 ;
+1 x542 -1 x18 -1 x38 >= -1 ;
-1 x531 +1 x17 >= 0 ;
-1 x531 +1 x39 >= 0 ;
+1 x531 -1 x17 -1 x39 >= -1 ;
-1 x520 +1 x16 >= 0 ;
-1 x520 +1 x40 >= 0 ;
+1 x520 -1 x16 -1 x40 >= -1 ;
-1 x509 +1 x15 >= 0 ;
-1 x509 +1 x41 >= 0 ;
+1 x509 -1 x15 -1 x41 >= -1 ;
-1 x498 +1 x14 >= 0 ;
-1 x498 +1 x42 >= 0 ;
+1 x498 -1 x14 -1 x42 >= -1 ;
-1 x487 +1 x13 >= 0 ;
-1 x487 +1 x43 >= 0 ;
+1 x487 -1 x13 -1 x43 >= -1 ;
-1 x133 +1 x32 >= 0 ;
-1 x133 +1 x37 >= 0 ;
+1 x133 -1 x32 -1 x37 >= -1 ;
-1 x122 +1 x31 >= 0 ;
-1 x122 +1 x38 >= 0 ;
+1 x122 -1 x31 -1 x38 >= -1 ;
-1 x111 +1 x30 >= 0 ;
-1 x111 +1 x39 >= 0 ;
+1 x111 -1 x30 -1 x39 >= -1 ;
-1 x100 +1 x29 >= 0 ;
-1 x100 +1 x40 >= 0 ;
+1 x100 -1 x29 -1 x40 >= -1 ;
-1 x89 +1 x28 >= 0 ;
-1 x89 +1 x41 >= 0 ;
+1 x89 -1 x28 -1 x41 >= -1 ;
-1 x78 +1 x27 >= 0 ;
-1 x78 +1 x42 >= 0 ;
+1 x78 -1 x27 -1 x42 >= -1 ;
-1 x67 +1 x26 >= 0 ;
-1 x67 +1 x43 >= 0 ;
+1 x67 -1 x26 -1 x43 >= -1 ;
-1 x56 +1 x25 >= 0 ;
-1 x56 +1 x44 >= 0 ;
+1 x56 -1 x25 -1 x44 >= -1 ;
-1 x565 +1 x20 >= 0 ;
-1 x565 +1 x37 >= 0 ;
+1 x565 -1 x20 -1 x37 >= -1 ;
-1 x554 +1 x19 >= 0 ;
-1 x554 +1 x38 >= 0 ;
+1 x554 -1 x19 -1 x38 >= -1 ;
-1 x543 +1 x18 >= 0 ;
-1 x543 +1 x39 >= 0 ;
+1 x543 -1 x18 -1 x39 >= -1 ;
-1 x532 +1 x17 >= 0 ;
-1 x532 +1 x40 >= 0 ;
+1 x532 -1 x17 -1 x40 >= -1 ;
-1 x521 +1 x16 >= 0 ;
-1 x521 +1 x41 >= 0 ;
+1 x521 -1 x16 -1 x41 >= -1 ;
-1 x510 +1 x15 >= 0 ;
-1 x510 +1 x42 >= 0 ;
+1 x510 -1 x15 -1 x42 >= -1 ;
-1 x499 +1 x14 >= 0 ;
-1 x499 +1 x43 >= 0 ;
+1 x499 -1 x14 -1 x43 >= -1 ;
-1 x488 +1 x13 >= 0 ;
-1 x488 +1 x44 >= 0 ;
+1 x488 -1 x13 -1 x44 >= -1 ;
-1 x145 +1 x33 >= 0 ;
-1 x145 +1 x37 >= 0 ;
+1 x145 -1 x33 -1 x37 >= -1 ;
-1 x134 +1 x32 >= 0 ;
-1 x134 +1 x38 >= 0 ;
+1 x134 -1 x32 -1 x38 >= -1 ;
-1 x123 +1 x31 >= 0 ;
-1 x123 +1 x39 >= 0 ;
+1 x123 -1 x31 -1 x39 >= -1 ;
-1 x112 +1 x30 >= 0 ;
-1 x112 +1 x40 >= 0 ;
+1 x112 -1 x30 -1 x40 >= -1 ;
-1 x101 +1 x29 >= 0 ;
-1 x101 +1 x41 >= 0 ;
+1 x101 -1 x29 -1 x41 >= -1 ;
-1 x90 +1 x28 >= 0 ;
-1 x90 +1 x42 >= 0 ;
+1 x90 -1 x28 -1 x42 >= -1 ;
-1 x79 +1 x27 >= 0 ;
-1 x79 +1 x43 >= 0 ;
+1 x79 -1 x27 -1 x43 >= -1 ;
-1 x68 +1 x26 >= 0 ;
-1 x68 +1 x44 >= 0 ;
+1 x68 -1 x26 -1 x44 >= -1 ;
-1 x57 +1 x25 >= 0 ;
-1 x57 +1 x45 >= 0 ;
+1 x57 -1 x25 -1 x45 >= -1 ;
-1 x577 +1 x21 >= 0 ;
-1 x577 +1 x37 >= 0 ;
+1 x577 -1 x21 -1 x37 >= -1 ;
-1 x566 +1 x20 >= 0 ;
-1 x566 +1 x38 >= 0 ;
+1 x566 -1 x20 -1 x38 >= -1 ;
-1 x555 +1 x19 >= 0 ;
-1 x555 +1 x39 >= 0 ;
+1 x555 -1 x19 -1 x39 >= -1 ;
-1 x544 +1 x18 >= 0 ;
-1 x544 +1 x40 >= 0 ;
+1 x544 -1 x18 -1 x40 >= -1 ;
-1 x533 +1 x17 >= 0 ;
-1 x533 +1 x41 >= 0 ;
+1 x533 -1 x17 -1 x41 >= -1 ;
-1 x522 +1 x16 >= 0 ;
-1 x522 +1 x42 >= 0 ;
+1 x522 -1 x16 -1 x42 >= -1 ;
-1 x511 +1 x15 >= 0 ;
-1 x511 +1 x43 >= 0 ;
+1 x511 -1 x15 -1 x43 >= -1 ;
-1 x500 +1 x14 >= 0 ;
-1 x500 +1 x44 >= 0 ;
+1 x500 -1 x14 -1 x44 >= -1 ;
-1 x489 +1 x13 >= 0 ;
-1 x489 +1 x45 >= 0 ;
+1 x489 -1 x13 -1 x45 >= -1 ;
-1 x157 +1 x34 >= 0 ;
-1 x157 +1 x37 >= 0 ;
+1 x157 -1 x34 -1 x37 >= -1 ;
-1 x146 +1 x33 >= 0 ;
-1 x146 +1 x38 >= 0 ;
+1 x146 -1 x33 -1 x38 >= -1 ;
-1 x135 +1 x32 >= 0 ;
-1 x135 +1 x39 >= 0 ;
+1 x135 -1 x32 -1 x39 >= -1 ;
-1 x124 +1 x31 >= 0 ;
-1 x124 +1 x40 >= 0 ;
+1 x124 -1 x31 -1 x40 >= -1 ;
-1 x113 +1 x30 >= 0 ;
-1 x113 +1 x41 >= 0 ;
+1 x113 -1 x30 -1 x41 >= -1 ;
-1 x102 +1 x29 >= 0 ;
-1 x102 +1 x42 >= 0 ;
+1 x102 -1 x29 -1 x42 >= -1 ;
-1 x91 +1 x28 >= 0 ;
-1 x91 +1 x43 >= 0 ;
+1 x91 -1 x28 -1 x43 >= -1 ;
-1 x80 +1 x27 >= 0 ;
-1 x80 +1 x44 >= 0 ;
+1 x80 -1 x27 -1 x44 >= -1 ;
-1 x69 +1 x26 >= 0 ;
-1 x69 +1 x45 >= 0 ;
+1 x69 -1 x26 -1 x45 >= -1 ;
-1 x58 +1 x25 >= 0 ;
-1 x58 +1 x46 >= 0 ;
+1 x58 -1 x25 -1 x46 >= -1 ;
-1 x589 +1 x22 >= 0 ;
-1 x589 +1 x37 >= 0 ;
+1 x589 -1 x22 -1 x37 >= -1 ;
-1 x578 +1 x21 >= 0 ;
-1 x578 +1 x38 >= 0 ;
+1 x578 -1 x21 -1 x38 >= -1 ;
-1 x567 +1 x20 >= 0 ;
-1 x567 +1 x39 >= 0 ;
+1 x567 -1 x20 -1 x39 >= -1 ;
-1 x556 +1 x19 >= 0 ;
-1 x556 +1 x40 >= 0 ;
+1 x556 -1 x19 -1 x40 >= -1 ;
-1 x545 +1 x18 >= 0 ;
-1 x545 +1 x41 >= 0 ;
+1 x545 -1 x18 -1 x41 >= -1 ;
-1 x534 +1 x17 >= 0 ;
-1 x534 +1 x42 >= 0 ;
+1 x534 -1 x17 -1 x42 >= -1 ;
-1 x523 +1 x16 >= 0 ;
-1 x523 +1 x43 >= 0 ;
+1 x523 -1 x16 -1 x43 >= -1 ;
-1 x512 +1 x15 >= 0 ;
-1 x512 +1 x44 >= 0 ;
+1 x512 -1 x15 -1 x44 >= -1 ;
-1 x501 +1 x14 >= 0 ;
-1 x501 +1 x45 >= 0 ;
+1 x501 -1 x14 -1 x45 >= -1 ;
-1 x490 +1 x13 >= 0 ;
-1 x490 +1 x46 >= 0 ;
+1 x490 -1 x13 -1 x46 >= -1 ;
-1 x169 +1 x35 >= 0 ;
-1 x169 +1 x37 >= 0 ;
+1 x169 -1 x35 -1 x37 >= -1 ;
-1 x158 +1 x34 >= 0 ;
-1 x158 +1 x38 >= 0 ;
+1 x158 -1 x34 -1 x38 >= -1 ;
-1 x147 +1 x33 >= 0 ;
-1 x147 +1 x39 >= 0 ;
+1 x147 -1 x33 -1 x39 >= -1 ;
-1 x136 +1 x32 >= 0 ;
-1 x136 +1 x40 >= 0 ;
+1 x136 -1 x32 -1 x40 >= -1 ;
-1 x125 +1 x31 >= 0 ;
-1 x125 +1 x41 >= 0 ;
+1 x125 -1 x31 -1 x41 >= -1 ;
-1 x114 +1 x30 >= 0 ;
-1 x114 +1 x42 >= 0 ;
+1 x114 -1 x30 -1 x42 >= -1 ;
-1 x103 +1 x29 >= 0 ;
-1 x103 +1 x43 >= 0 ;
+1 x103 -1 x29 -1 x43 >= -1 ;
-1 x92 +1 x28 >= 0 ;
-1 x92 +1 x44 >= 0 ;
+1 x92 -1 x28 -1 x44 >= -1 ;
-1 x81 +1 x27 >= 0 ;
-1 x81 +1 x45 >= 0 ;
+1 x81 -1 x27 -1 x45 >= -1 ;
-1 x70 +1 x26 >= 0 ;
-1 x70 +1 x46 >= 0 ;
+1 x70 -1 x26 -1 x46 >= -1 ;
-1 x59 +1 x25 >= 0 ;
-1 x59 +1 x47 >= 0 ;
+1 x59 -1 x25 -1 x47 >= -1 ;
-1 x601 +1 x23 >= 0 ;
-1 x601 +1 x37 >= 0 ;
+1 x601 -1 x23 -1 x37 >= -1 ;
-1 x590 +1 x22 >= 0 ;
-1 x590 +1 x38 >= 0 ;
+1 x590 -1 x22 -1 x38 >= -1 ;
-1 x579 +1 x21 >= 0 ;
-1 x579 +1 x39 >= 0 ;
+1 x579 -1 x21 -1 x39 >= -1 ;
-1 x568 +1 x20 >= 0 ;
-1 x568 +1 x40 >= 0 ;
+1 x568 -1 x20 -1 x40 >= -1 ;
-1 x557 +1 x19 >= 0 ;
-1 x557 +1 x41 >= 0 ;
+1 x557 -1 x19 -1 x41 >= -1 ;
-1 x546 +1 x18 >= 0 ;
-1 x546 +1 x42 >= 0 ;
+1 x546 -1 x18 -1 x42 >= -1 ;
-1 x535 +1 x17 >= 0 ;
-1 x535 +1 x43 >= 0 ;
+1 x535 -1 x17 -1 x43 >= -1 ;
-1 x524 +1 x16 >= 0 ;
-1 x524 +1 x44 >= 0 ;
+1 x524 -1 x16 -1 x44 >= -1 ;
-1 x513 +1 x15 >= 0 ;
-1 x513 +1 x45 >= 0 ;
+1 x513 -1 x15 -1 x45 >= -1 ;
-1 x502 +1 x14 >= 0 ;
-1 x502 +1 x46 >= 0 ;
+1 x502 -1 x14 -1 x46 >= -1 ;
-1 x491 +1 x13 >= 0 ;
-1 x491 +1 x47 >= 0 ;
+1 x491 -1 x13 -1 x47 >= -1 ;
-1 x181 +1 x36 >= 0 ;
-1 x181 +1 x37 >= 0 ;
+1 x181 -1 x36 -1 x37 >= -1 ;
-1 x170 +1 x35 >= 0 ;
-1 x170 +1 x38 >= 0 ;
+1 x170 -1 x35 -1 x38 >= -1 ;
-1 x159 +1 x34 >= 0 ;
-1 x159 +1 x39 >= 0 ;
+1 x159 -1 x34 -1 x39 >= -1 ;
-1 x148 +1 x33 >= 0 ;
-1 x148 +1 x40 >= 0 ;
+1 x148 -1 x33 -1 x40 >= -1 ;
-1 x137 +1 x32 >= 0 ;
-1 x137 +1 x41 >= 0 ;
+1 x137 -1 x32 -1 x41 >= -1 ;
-1 x126 +1 x31 >= 0 ;
-1 x126 +1 x42 >= 0 ;
+1 x126 -1 x31 -1 x42 >= -1 ;
-1 x115 +1 x30 >= 0 ;
-1 x115 +1 x43 >= 0 ;
+1 x115 -1 x30 -1 x43 >= -1 ;
-1 x104 +1 x29 >= 0 ;
-1 x104 +1 x44 >= 0 ;
+1 x104 -1 x29 -1 x44 >= -1 ;
-1 x93 +1 x28 >= 0 ;
-1 x93 +1 x45 >= 0 ;
+1 x93 -1 x28 -1 x45 >= -1 ;
-1 x82 +1 x27 >= 0 ;
-1 x82 +1 x46 >= 0 ;
+1 x82 -1 x27 -1 x46 >= -1 ;
-1 x71 +1 x26 >= 0 ;
-1 x71 +1 x47 >= 0 ;
+1 x71 -1 x26 -1 x47 >= -1 ;
-1 x60 +1 x25 >= 0 ;
-1 x60 +1 x48 >= 0 ;
+1 x60 -1 x25 -1 x48 >= -1 ;
-1 x613 +1 x24 >= 0 ;
-1 x613 +1 x37 >= 0 ;
+1 x613 -1 x24 -1 x37 >= -1 ;
-1 x602 +1 x23 >= 0 ;
-1 x602 +1 x38 >= 0 ;
+1 x602 -1 x23 -1 x38 >= -1 ;
-1 x591 +1 x22 >= 0 ;
-1 x591 +1 x39 >= 0 ;
+1 x591 -1 x22 -1 x39 >= -1 ;
-1 x580 +1 x21 >= 0 ;
-1 x580 +1 x40 >= 0 ;
+1 x580 -1 x21 -1 x40 >= -1 ;
-1 x569 +1 x20 >= 0 ;
-1 x569 +1 x41 >= 0 ;
+1 x569 -1 x20 -1 x41 >= -1 ;
-1 x558 +1 x19 >= 0 ;
-1 x558 +1 x42 >= 0 ;
+1 x558 -1 x19 -1 x42 >= -1 ;
-1 x547 +1 x18 >= 0 ;
-1 x547 +1 x43 >= 0 ;
+1 x547 -1 x18 -1 x43 >= -1 ;
-1 x536 +1 x17 >= 0 ;
-1 x536 +1 x44 >= 0 ;
+1 x536 -1 x17 -1 x44 >= -1 ;
-1 x525 +1 x16 >= 0 ;
-1 x525 +1 x45 >= 0 ;
+1 x525 -1 x16 -1 x45 >= -1 ;
-1 x514 +1 x15 >= 0 ;
-1 x514 +1 x46 >= 0 ;
+1 x514 -1 x15 -1 x46 >= -1 ;
-1 x503 +1 x14 >= 0 ;
-1 x503 +1 x47 >= 0 ;
+1 x503 -1 x14 -1 x47 >= -1 ;
-1 x492 +1 x13 >= 0 ;
-1 x492 +1 x48 >= 0 ;
+1 x492 -1 x13 -1 x48 >= -1 ;
-1 x182 +1 x36 >= 0 ;
-1 x182 +1 x38 >= 0 ;
+1 x182 -1 x36 -1 x38 >= -1 ;
-1 x171 +1 x35 >= 0 ;
-1 x171 +1 x39 >= 0 ;
+1 x171 -1 x35 -1 x39 >= -1 ;
-1 x160 +1 x34 >= 0 ;
-1 x160 +1 x40 >= 0 ;
+1 x160 -1 x34 -1 x40 >= -1 ;
-1 x149 +1 x33 >= 0 ;
-1 x149 +1 x41 >= 0 ;
+1 x149 -1 x33 -1 x41 >= -1 ;
-1 x138 +1 x32 >= 0 ;
-1 x138 +1 x42 >= 0 ;
+1 x138 -1 x32 -1 x42 >= -1 ;
-1 x127 +1 x31 >= 0 ;
-1 x127 +1 x43 >= 0 ;
+1 x127 -1 x31 -1 x43 >= -1 ;
-1 x116 +1 x30 >= 0 ;
-1 x116 +1 x44 >= 0 ;
+1 x116 -1 x30 -1 x44 >= -1 ;
-1 x105 +1 x29 >= 0 ;
-1 x105 +1 x45 >= 0 ;
+1 x105 -1 x29 -1 x45 >= -1 ;
-1 x94 +1 x28 >= 0 ;
-1 x94 +1 x46 >= 0 ;
+1 x94 -1 x28 -1 x46 >= -1 ;
-1 x83 +1 x27 >= 0 ;
-1 x83 +1 x47 >= 0 ;
+1 x83 -1 x27 -1 x47 >= -1 ;
-1 x72 +1 x26 >= 0 ;
-1 x72 +1 x48 >= 0 ;
+1 x72 -1 x26 -1 x48 >= -1 ;
-1 x614 +1 x24 >= 0 ;
-1 x614 +1 x38 >= 0 ;
+1 x614 -1 x24 -1 x38 >= -1 ;
-1 x603 +1 x23 >= 0 ;
-1 x603 +1 x39 >= 0 ;
+1 x603 -1 x23 -1 x39 >= -1 ;
-1 x592 +1 x22 >= 0 ;
-1 x592 +1 x40 >= 0 ;
+1 x592 -1 x22 -1 x40 >= -1 ;
-1 x581 +1 x21 >= 0 ;
-1 x581 +1 x41 >= 0 ;
+1 x581 -1 x21 -1 x41 >= -1 ;
-1 x570 +1 x20 >= 0 ;
-1 x570 +1 x42 >= 0 ;
+1 x570 -1 x20 -1 x42 >= -1 ;
-1 x559 +1 x19 >= 0 ;
-1 x559 +1 x43 >= 0 ;
+1 x559 -1 x19 -1 x43 >= -1 ;
-1 x548 +1 x18 >= 0 ;
-1 x548 +1 x44 >= 0 ;
+1 x548 -1 x18 -1 x44 >= -1 ;
-1 x537 +1 x17 >= 0 ;
-1 x537 +1 x45 >= 0 ;
+1 x537 -1 x17 -1 x45 >= -1 ;
-1 x526 +1 x16 >= 0 ;
-1 x526 +1 x46 >= 0 ;
+1 x526 -1 x16 -1 x46 >= -1 ;
-1 x515 +1 x15 >= 0 ;
-1 x515 +1 x47 >= 0 ;
+1 x515 -1 x15 -1 x47 >= -1 ;
-1 x504 +1 x14 >= 0 ;
-1 x504 +1 x48 >= 0 ;
+1 x504 -1 x14 -1 x48 >= -1 ;
-1 x183 +1 x36 >= 0 ;
-1 x183 +1 x39 >= 0 ;
+1 x183 -1 x36 -1 x39 >= -1 ;
-1 x172 +1 x35 >= 0 ;
-1 x172 +1 x40 >= 0 ;
+1 x172 -1 x35 -1 x40 >= -1 ;
-1 x161 +1 x34 >= 0 ;
-1 x161 +1 x41 >= 0 ;
+1 x161 -1 x34 -1 x41 >= -1 ;
-1 x150 +1 x33 >= 0 ;
-1 x150 +1 x42 >= 0 ;
+1 x150 -1 x33 -1 x42 >= -1 ;
-1 x139 +1 x32 >= 0 ;
-1 x139 +1 x43 >= 0 ;
+1 x139 -1 x32 -1 x43 >= -1 ;
-1 x128 +1 x31 >= 0 ;
-1 x128 +1 x44 >= 0 ;
+1 x128 -1 x31 -1 x44 >= -1 ;
-1 x117 +1 x30 >= 0 ;
-1 x117 +1 x45 >= 0 ;
+1 x117 -1 x30 -1 x45 >= -1 ;
-1 x106 +1 x29 >= 0 ;
-1 x106 +1 x46 >= 0 ;
+1 x106 -1 x29 -1 x46 >= -1 ;
-1 x95 +1 x28 >= 0 ;
-1 x95 +1 x47 >= 0 ;
+1 x95 -1 x28 -1 x47 >= -1 ;
-1 x84 +1 x27 >= 0 ;
-1 x84 +1 x48 >= 0 ;
+1 x84 -1 x27 -1 x48 >= -1 ;
-1 x615 +1 x24 >= 0 ;
-1 x615 +1 x39 >= 0 ;
+1 x615 -1 x24 -1 x39 >= -1 ;
-1 x604 +1 x23 >= 0 ;
-1 x604 +1 x40 >= 0 ;
+1 x604 -1 x23 -1 x40 >= -1 ;
-1 x593 +1 x22 >= 0 ;
-1 x593 +1 x41 >= 0 ;
+1 x593 -1 x22 -1 x41 >= -1 ;
-1 x582 +1 x21 >= 0 ;
-1 x582 +1 x42 >= 0 ;
+1 x582 -1 x21 -1 x42 >= -1 ;
-1 x571 +1 x20 >= 0 ;
-1 x571 +1 x43 >= 0 ;
+1 x571 -1 x20 -1 x43 >= -1 ;
-1 x560 +1 x19 >= 0 ;
-1 x560 +1 x44 >= 0 ;
+1 x560 -1 x19 -1 x44 >= -1 ;
-1 x549 +1 x18 >= 0 ;
-1 x549 +1 x45 >= 0 ;
+1 x549 -1 x18 -1 x45 >= -1 ;
-1 x538 +1 x17 >= 0 ;
-1 x538 +1 x46 >= 0 ;
+1 x538 -1 x17 -1 x46 >= -1 ;
-1 x527 +1 x16 >= 0 ;
-1 x527 +1 x47 >= 0 ;
+1 x527 -1 x16 -1 x47 >= -1 ;
-1 x516 +1 x15 >= 0 ;
-1 x516 +1 x48 >= 0 ;
+1 x516 -1 x15 -1 x48 >= -1 ;
-1 x184 +1 x36 >= 0 ;
-1 x184 +1 x40 >= 0 ;
+1 x184 -1 x36 -1 x40 >= -1 ;
-1 x173 +1 x35 >= 0 ;
-1 x173 +1 x41 >= 0 ;
+1 x173 -1 x35 -1 x41 >= -1 ;
-1 x162 +1 x34 >= 0 ;
-1 x162 +1 x42 >= 0 ;
+1 x162 -1 x34 -1 x42 >= -1 ;
-1 x151 +1 x33 >= 0 ;
-1 x151 +1 x43 >= 0 ;
+1 x151 -1 x33 -1 x43 >= -1 ;
-1 x140 +1 x32 >= 0 ;
-1 x140 +1 x44 >= 0 ;
+1 x140 -1 x32 -1 x44 >= -1 ;
-1 x129 +1 x31 >= 0 ;
-1 x129 +1 x45 >= 0 ;
+1 x129 -1 x31 -1 x45 >= -1 ;
-1 x118 +1 x30 >= 0 ;
-1 x118 +1 x46 >= 0 ;
+1 x118 -1 x30 -1 x46 >= -1 ;
-1 x107 +1 x29 >= 0 ;
-1 x107 +1 x47 >= 0 ;
+1 x107 -1 x29 -1 x47 >= -1 ;
-1 x96 +1 x28 >= 0 ;
-1 x96 +1 x48 >= 0 ;
+1 x96 -1 x28 -1 x48 >= -1 ;
-1 x616 +1 x24 >= 0 ;
-1 x616 +1 x40 >= 0 ;
+1 x616 -1 x24 -1 x40 >= -1 ;
-1 x605 +1 x23 >= 0 ;
-1 x605 +1 x41 >= 0 ;
+1 x605 -1 x23 -1 x41 >= -1 ;
-1 x594 +1 x22 >= 0 ;
-1 x594 +1 x42 >= 0 ;
+1 x594 -1 x22 -1 x42 >= -1 ;
-1 x583 +1 x21 >= 0 ;
-1 x583 +1 x43 >= 0 ;
+1 x583 -1 x21 -1 x43 >= -1 ;
-1 x572 +1 x20 >= 0 ;
-1 x572 +1 x44 >= 0 ;
+1 x572 -1 x20 -1 x44 >= -1 ;
-1 x561 +1 x19 >= 0 ;
-1 x561 +1 x45 >= 0 ;
+1 x561 -1 x19 -1 x45 >= -1 ;
-1 x550 +1 x18 >= 0 ;
-1 x550 +1 x46 >= 0 ;
+1 x550 -1 x18 -1 x46 >= -1 ;
-1 x539 +1 x17 >= 0 ;
-1 x539 +1 x47 >= 0 ;
+1 x539 -1 x17 -1 x47 >= -1 ;
-1 x528 +1 x16 >= 0 ;
-1 x528 +1 x48 >= 0 ;
+1 x528 -1 x16 -1 x48 >= -1 ;
-1 x185 +1 x36 >= 0 ;
-1 x185 +1 x41 >= 0 ;
+1 x185 -1 x36 -1 x41 >= -1 ;
-1 x174 +1 x35 >= 0 ;
-1 x174 +1 x42 >= 0 ;
+1 x174 -1 x35 -1 x42 >= -1 ;
-1 x163 +1 x34 >= 0 ;
-1 x163 +1 x43 >= 0 ;
+1 x163 -1 x34 -1 x43 >= -1 ;
-1 x152 +1 x33 >= 0 ;
-1 x152 +1 x44 >= 0 ;
+1 x152 -1 x33 -1 x44 >= -1 ;
-1 x141 +1 x32 >= 0 ;
-1 x141 +1 x45 >= 0 ;
+1 x141 -1 x32 -1 x45 >= -1 ;
-1 x130 +1 x31 >= 0 ;
-1 x130 +1 x46 >= 0 ;
+1 x130 -1 x31 -1 x46 >= -1 ;
-1 x119 +1 x30 >= 0 ;
-1 x119 +1 x47 >= 0 ;
+1 x119 -1 x30 -1 x47 >= -1 ;
-1 x108 +1 x29 >= 0 ;
-1 x108 +1 x48 >= 0 ;
+1 x108 -1 x29 -1 x48 >= -1 ;
-1 x617 +1 x24 >= 0 ;
-1 x617 +1 x41 >= 0 ;
+1 x617 -1 x24 -1 x41 >= -1 ;
-1 x606 +1 x23 >= 0 ;
-1 x606 +1 x42 >= 0 ;
+1 x606 -1 x23 -1 x42 >= -1 ;
-1 x595 +1 x22 >= 0 ;
-1 x595 +1 x43 >= 0 ;
+1 x595 -1 x22 -1 x43 >= -1 ;
-1 x584 +1 x21 >= 0 ;
-1 x584 +1 x44 >= 0 ;
+1 x584 -1 x21 -1 x44 >= -1 ;
-1 x573 +1 x20 >= 0 ;
-1 x573 +1 x45 >= 0 ;
+1 x573 -1 x20 -1 x45 >= -1 ;
-1 x562 +1 x19 >= 0 ;
-1 x562 +1 x46 >= 0 ;
+1 x562 -1 x19 -1 x46 >= -1 ;
-1 x551 +1 x18 >= 0 ;
-1 x551 +1 x47 >= 0 ;
+1 x551 -1 x18 -1 x47 >= -1 ;
-1 x540 +1 x17 >= 0 ;
-1 x540 +1 x48 >= 0 ;
+1 x540 -1 x17 -1 x48 >= -1 ;
-1 x186 +1 x36 >= 0 ;
-1 x186 +1 x42 >= 0 ;
+1 x186 -1 x36 -1 x42 >= -1 ;
-1 x175 +1 x35 >= 0 ;
-1 x175 +1 x43 >= 0 ;
+1 x175 -1 x35 -1 x43 >= -1 ;
-1 x164 +1 x34 >= 0 ;
-1 x164 +1 x44 >= 0 ;
+1 x164 -1 x34 -1 x44 >= -1 ;
-1 x153 +1 x33 >= 0 ;
-1 x153 +1 x45 >= 0 ;
+1 x153 -1 x33 -1 x45 >= -1 ;
-1 x142 +1 x32 >= 0 ;
-1 x142 +1 x46 >= 0 ;
+1 x142 -1 x32 -1 x46 >= -1 ;
-1 x131 +1 x31 >= 0 ;
-1 x131 +1 x47 >= 0 ;
+1 x131 -1 x31 -1 x47 >= -1 ;
-1 x120 +1 x30 >= 0 ;
-1 x120 +1 x48 >= 0 ;
+1 x120 -1 x30 -1 x48 >= -1 ;
-1 x618 +1 x24 >= 0 ;
-1 x618 +1 x42 >= 0 ;
+1 x618 -1 x24 -1 x42 >= -1 ;
-1 x607 +1 x23 >= 0 ;
-1 x607 +1 x43 >= 0 ;
+1 x607 -1 x23 -1 x43 >= -1 ;
-1 x596 +1 x22 >= 0 ;
-1 x596 +1 x44 >= 0 ;
+1 x596 -1 x22 -1 x44 >= -1 ;
-1 x585 +1 x21 >= 0 ;
-1 x585 +1 x45 >= 0 ;
+1 x585 -1 x21 -1 x45 >= -1 ;
-1 x574 +1 x20 >= 0 ;
-1 x574 +1 x46 >= 0 ;
+1 x574 -1 x20 -1 x46 >= -1 ;
-1 x563 +1 x19 >= 0 ;
-1 x563 +1 x47 >= 0 ;
+1 x563 -1 x19 -1 x47 >= -1 ;
-1 x552 +1 x18 >= 0 ;
-1 x552 +1 x48 >= 0 ;
+1 x552 -1 x18 -1 x48 >= -1 ;
-1 x187 +1 x36 >= 0 ;
-1 x187 +1 x43 >= 0 ;
+1 x187 -1 x36 -1 x43 >= -1 ;
-1 x176 +1 x35 >= 0 ;
-1 x176 +1 x44 >= 0 ;
+1 x176 -1 x35 -1 x44 >= -1 ;
-1 x165 +1 x34 >= 0 ;
-1 x165 +1 x45 >= 0 ;
+1 x165 -1 x34 -1 x45 >= -1 ;
-1 x154 +1 x33 >= 0 ;
-1 x154 +1 x46 >= 0 ;
+1 x154 -1 x33 -1 x46 >= -1 ;
-1 x143 +1 x32 >= 0 ;
-1 x143 +1 x47 >= 0 ;
+1 x143 -1 x32 -1 x47 >= -1 ;
-1 x132 +1 x31 >= 0 ;
-1 x132 +1 x48 >= 0 ;
+1 x132 -1 x31 -1 x48 >= -1 ;
-1 x619 +1 x24 >= 0 ;
-1 x619 +1 x43 >= 0 ;
+1 x619 -1 x24 -1 x43 >= -1 ;
-1 x608 +1 x23 >= 0 ;
-1 x608 +1 x44 >= 0 ;
+1 x608 -1 x23 -1 x44 >= -1 ;
-1 x597 +1 x22 >= 0 ;
-1 x597 +1 x45 >= 0 ;
+1 x597 -1 x22 -1 x45 >= -1 ;
-1 x586 +1 x21 >= 0 ;
-1 x586 +1 x46 >= 0 ;
+1 x586 -1 x21 -1 x46 >= -1 ;
-1 x575 +1 x20 >= 0 ;
-1 x575 +1 x47 >= 0 ;
+1 x575 -1 x20 -1 x47 >= -1 ;
-1 x564 +1 x19 >= 0 ;
-1 x564 +1 x48 >= 0 ;
+1 x564 -1 x19 -1 x48 >= -1 ;
-1 x188 +1 x36 >= 0 ;
-1 x188 +1 x44 >= 0 ;
+1 x188 -1 x36 -1 x44 >= -1 ;
-1 x177 +1 x35 >= 0 ;
-1 x177 +1 x45 >= 0 ;
+1 x177 -1 x35 -1 x45 >= -1 ;
-1 x166 +1 x34 >= 0 ;
-1 x166 +1 x46 >= 0 ;
+1 x166 -1 x34 -1 x46 >= -1 ;
-1 x155 +1 x33 >= 0 ;
-1 x155 +1 x47 >= 0 ;
+1 x155 -1 x33 -1 x47 >= -1 ;
-1 x144 +1 x32 >= 0 ;
-1 x144 +1 x48 >= 0 ;
+1 x144 -1 x32 -1 x48 >= -1 ;
-1 x620 +1 x24 >= 0 ;
-1 x620 +1 x44 >= 0 ;
+1 x620 -1 x24 -1 x44 >= -1 ;
-1 x609 +1 x23 >= 0 ;
-1 x609 +1 x45 >= 0 ;
+1 x609 -1 x23 -1 x45 >= -1 ;
-1 x598 +1 x22 >= 0 ;
-1 x598 +1 x46 >= 0 ;
+1 x598 -1 x22 -1 x46 >= -1 ;
-1 x587 +1 x21 >= 0 ;
-1 x587 +1 x47 >= 0 ;
+1 x587 -1 x21 -1 x47 >= -1 ;
-1 x576 +1 x20 >= 0 ;
-1 x576 +1 x48 >= 0 ;
+1 x576 -1 x20 -1 x48 >= -1 ;
-1 x189 +1 x36 >= 0 ;
-1 x189 +1 x45 >= 0 ;
+1 x189 -1 x36 -1 x45 >= -1 ;
-1 x178 +1 x35 >= 0 ;
-1 x178 +1 x46 >= 0 ;
+1 x178 -1 x35 -1 x46 >= -1 ;
-1 x167 +1 x34 >= 0 ;
-1 x167 +1 x47 >= 0 ;
+1 x167 -1 x34 -1 x47 >= -1 ;
-1 x156 +1 x33 >= 0 ;
-1 x156 +1 x48 >= 0 ;
+1 x156 -1 x33 -1 x48 >= -1 ;
-1 x621 +1 x24 >= 0 ;
-1 x621 +1 x45 >= 0 ;
+1 x621 -1 x24 -1 x45 >= -1 ;
-1 x610 +1 x23 >= 0 ;
-1 x610 +1 x46 >= 0 ;
+1 x610 -1 x23 -1 x46 >= -1 ;
-1 x599 +1 x22 >= 0 ;
-1 x599 +1 x47 >= 0 ;
+1 x599 -1 x22 -1 x47 >= -1 ;
-1 x588 +1 x21 >= 0 ;
-1 x588 +1 x48 >= 0 ;
+1 x588 -1 x21 -1 x48 >= -1 ;
-1 x190 +1 x36 >= 0 ;
-1 x190 +1 x46 >= 0 ;
+1 x190 -1 x36 -1 x46 >= -1 ;
-1 x179 +1 x35 >= 0 ;
-1 x179 +1 x47 >= 0 ;
+1 x179 -1 x35 -1 x47 >= -1 ;
-1 x168 +1 x34 >= 0 ;
-1 x168 +1 x48 >= 0 ;
+1 x168 -1 x34 -1 x48 >= -1 ;
-1 x622 +1 x24 >= 0 ;
-1 x622 +1 x46 >= 0 ;
+1 x622 -1 x24 -1 x46 >= -1 ;
-1 x611 +1 x23 >= 0 ;
-1 x611 +1 x47 >= 0 ;
+1 x611 -1 x23 -1 x47 >= -1 ;
-1 x600 +1 x22 >= 0 ;
-1 x600 +1 x48 >= 0 ;
+1 x600 -1 x22 -1 x48 >= -1 ;
-1 x191 +1 x36 >= 0 ;
-1 x191 +1 x47 >= 0 ;
+1 x191 -1 x36 -1 x47 >= -1 ;
-1 x180 +1 x35 >= 0 ;
-1 x180 +1 x48 >= 0 ;
+1 x180 -1 x35 -1 x48 >= -1 ;
-1 x623 +1 x24 >= 0 ;
-1 x623 +1 x47 >= 0 ;
+1 x623 -1 x24 -1 x47 >= -1 ;
-1 x612 +1 x23 >= 0 ;
-1 x612 +1 x48 >= 0 ;
+1 x612 -1 x23 -1 x48 >= -1 ;
-1 x192 +1 x36 >= 0 ;
-1 x192 +1 x48 >= 0 ;
+1 x192 -1 x36 -1 x48 >= -1 ;
-1 x624 +1 x24 >= 0 ;
-1 x624 +1 x48 >= 0 ;
+1 x624 -1 x24 -1 x48 >= -1 ;
